asp/input/in_40_20_8_2.lp
#const n = 40.
#const k = 20.
#const h = 8.
tile(1,15,11).
tile(2,6,12).
tile(3,15,3).
tile(4,13,17).
tile(5,17,16).
tile(6,9,6).
tile(7,20,9).
tile(8,6,5).
tile(9,11,5).
tile(10,20,15).
tile(11,12,17).
tile(12,5,15).
tile(13,7,13).
tile(14,10,10).
tile(15,13,7).
tile(16,17,13).
tile(17,17,8).
tile(18,1,3).
tile(19,6,15).
tile(20,2,7).
tile(21,13,7).
tile(22,4,19).
tile(23,16,8).
tile(24,3,11).
tile(25,16,2).
tile(26,5,20).
tile(27,16,9).
tile(28,5,12).
tile(29,20,20).
tile(30,2,14).
tile(31,13,9).
tile(32,1,14).
tile(33,7,18).
tile(34,7,3).
tile(35,1,15).
tile(36,4,13).
tile(37,2,10).
tile(38,17,11).
tile(39,2,14).
tile(40,18,16).
