minizinc/input/in_40_20_8_2.dzn
n = 40;
k = 20;
h = 8;
tiles = array2d(1..n, 1..2,
[ 15,11
, 6,12
, 15,3
, 13,17
, 17,16
, 9,6
, 20,9
, 6,5
, 11,5
, 20,15
, 12,17
, 5,15
, 7,13
, 10,10
, 13,7
, 17,13
, 17,8
, 1,3
, 6,15
, 2,7
, 13,7
, 4,19
, 16,8
, 3,11
, 16,2
, 5,20
, 16,9
, 5,12
, 20,20
, 2,14
, 13,9
, 1,14
, 7,18
, 7,3
, 1,15
, 4,13
, 2,10
, 17,11
, 2,14
, 18,16
]);